(set-info :smt-lib-version 2.6)
(set-logic QF_UFLRA)
(set-info :source |
MathSat group

|)
(set-info :category "random")
(set-info :status unsat)
(declare-fun x0 () Real)
(declare-fun x1 () Real)
(declare-fun x2 () Real)
(declare-fun x3 () Real)
(declare-fun x4 () Real)
(declare-fun x5 () Real)
(declare-fun x6 () Real)
(declare-fun x7 () Real)
(declare-fun x8 () Real)
(declare-fun x9 () Real)
(declare-fun x10 () Real)
(declare-fun x11 () Real)
(declare-fun x12 () Real)
(declare-fun x13 () Real)
(declare-fun x14 () Real)
(declare-fun x15 () Real)
(declare-fun x16 () Real)
(declare-fun x17 () Real)
(declare-fun x18 () Real)
(declare-fun x19 () Real)
(declare-fun x20 () Real)
(declare-fun x21 () Real)
(declare-fun x22 () Real)
(declare-fun x23 () Real)
(declare-fun x24 () Real)
(declare-fun x25 () Real)
(declare-fun x26 () Real)
(declare-fun x27 () Real)
(declare-fun x28 () Real)
(declare-fun x29 () Real)
(declare-fun f0_1 (Real) Real)
(declare-fun f0_2 (Real Real) Real)
(declare-fun f0_3 (Real Real Real) Real)
(declare-fun f0_4 (Real Real Real Real) Real)
(declare-fun P0 () Bool)
(declare-fun P1 () Bool)
(declare-fun P2 () Bool)
(declare-fun P3 () Bool)
(declare-fun P4 () Bool)
(declare-fun P5 () Bool)
(declare-fun P6 () Bool)
(declare-fun P7 () Bool)
(declare-fun P8 () Bool)
(declare-fun P9 () Bool)
(declare-fun P10 () Bool)
(declare-fun P11 () Bool)
(declare-fun P12 () Bool)
(declare-fun P13 () Bool)
(declare-fun P14 () Bool)
(declare-fun P15 () Bool)
(declare-fun P16 () Bool)
(declare-fun P17 () Bool)
(declare-fun P18 () Bool)
(declare-fun P19 () Bool)
(declare-fun P20 () Bool)
(declare-fun P21 () Bool)
(declare-fun P22 () Bool)
(declare-fun P23 () Bool)
(declare-fun P24 () Bool)
(declare-fun P25 () Bool)
(declare-fun P26 () Bool)
(declare-fun P27 () Bool)
(declare-fun P28 () Bool)
(declare-fun P29 () Bool)
(assert (let ((?v_70 (<= (- (- (* 18 x4) (* 36 x28)) (* 25 x13)) 37)) (?v_146 (< (- (+ (* 22 x21) (* 19 x11)) (* 39 x14)) 18)) (?v_33 (<= (+ (- (* 11 x19) (* 15 x23)) (* 41 x23)) 23)) (?v_41 (= (- (- (* 35 x18) (* 42 x22)) (* 39 x15)) 40)) (?v_81 (distinct x22 (f0_2 x10 x12))) (?v_80 (distinct (f0_2 x21 x21) (f0_1 x6))) (?v_83 (= (f0_1 x5) (f0_1 x25))) (?v_27 (= x20 x17)) (?v_4 (f0_1 x19))) (let ((?v_14 (distinct x15 ?v_4)) (?v_28 (distinct (f0_2 x19 x8) (f0_2 x1 x11))) (?v_89 (distinct (f0_1 x17) (f0_2 x4 x1))) (?v_105 (= x6 (f0_2 x24 x25))) (?v_30 (distinct x12 (f0_1 x22))) (?v_79 (distinct (f0_1 x18) (f0_2 x12 x16))) (?v_104 (distinct x15 (f0_2 x0 x29))) (?v_102 (= x24 (f0_1 x3))) (?v_8 (f0_1 x4))) (let ((?v_37 (= ?v_8 x10)) (?v_42 (= x9 (f0_2 x6 x11))) (?v_22 (= x23 (f0_2 x4 x21))) (?v_7 (= ?v_8 (f0_2 x10 x10))) (?v_131 (= x22 (f0_2 x21 x3))) (?v_95 (distinct (f0_1 x9) (f0_2 x17 x1))) (?v_13 (= (f0_2 x28 x8) x2)) (?v_71 (= (f0_2 x22 x27) (f0_2 x26 x21))) (?v_0 (f0_1 x14))) (let ((?v_67 (= ?v_0 (f0_1 x2))) (?v_113 (= (f0_2 x1 x22) x12)) (?v_56 (= (f0_2 x17 x27) (f0_2 x17 x29))) (?v_61 (= (f0_1 x13) (f0_2 x15 x6))) (?v_31 (= x0 x11)) (?v_65 (= x19 (f0_2 x25 x13))) (?v_108 (= (f0_2 x24 x0) ?v_0)) (?v_29 (= ?v_4 (f0_2 x25 x26))) (?v_74 (= (f0_2 x8 x1) (f0_2 x27 x20))) (?v_94 (= (f0_1 x23) (f0_2 x25 x3))) (?v_59 (not P23)) (?v_35 (not ?v_14)) (?v_17 (not P16)) (?v_60 (not P6)) (?v_21 (not ?v_27))) (let ((?v_16 (not ?v_65)) (?v_88 (not ?v_108)) (?v_68 (not P13)) (?v_20 (not P12)) (?v_58 (not P27)) (?v_9 (not ?v_28)) (?v_63 (not P15)) (?v_76 (not ?v_29)) (?v_47 (not ?v_61)) (?v_55 (not ?v_7)) (?v_142 (not P17)) (?v_39 (not P7)) (?v_107 (not P29)) (?v_139 (not P0)) (?v_32 (not ?v_95)) (?v_103 (not ?v_70)) (?v_129 (not ?v_13)) (?v_18 (not ?v_42)) (?v_118 (not P9)) (?v_50 (not P24)) (?v_34 (not P10)) (?v_26 (not P28)) (?v_125 (not P8)) (?v_69 (not ?v_22)) (?v_86 (not ?v_30)) (?v_49 (not P26)) (?v_40 (not ?v_131)) (?v_106 (not ?v_71)) (?v_75 (not ?v_37)) (?v_45 (not ?v_41)) (?v_126 (not P1)) (?v_77 (not P25)) (?v_96 (not ?v_33)) (?v_98 (not ?v_102)) (?v_116 (not P2)) (?v_109 (not P20)) (?v_92 (not ?v_80)) (?v_97 (not P4)) (?v_87 (not ?v_56)) (?v_91 (not ?v_31)) (?v_114 (not ?v_83)) (?v_112 (not ?v_67)) (?v_90 (not P5)) (?v_121 (not P21)) (?v_99 (not ?v_79)) (?v_133 (not ?v_89)) (?v_115 (not ?v_105)) (?v_140 (not P19)) (?v_144 (not ?v_81)) (?v_123 (not ?v_104)) (?v_134 (or P6 ?v_31)) (?v_120 (not ?v_113)) (?v_138 (not P14)) (?v_128 (not P3)) (?v_130 (not P11)) (?v_145 (not P18)) (?v_149 (not ?v_74)) (?v_152 (not P22)) (?v_93 (<= (+ (* 25 x3) (* 26 x26) (* 21 x26)) 31))) (let ((?v_117 (not ?v_93)) (?v_100 (<= (- (- (* (- 27) x10) (* 40 x17)) (* 5 x12)) 18)) (?v_1 (< (+ (* (- 18) x23) (* 28 x11) (* 36 x8)) 8)) (?v_36 (< (- (- (* (- 17) x21) (* 35 x24)) (* 20 x23)) 42))) (let ((?v_5 (not ?v_36)) (?v_2 (< (+ (- (* (- 8) x26) (* 29 x22)) (* 16 x11)) 4)) (?v_6 (<= (- (- (* 32 x22) (* 3 x19)) (* 22 x10)) (- 17))) (?v_10 (< (- (- (* (- 12) x29) (* 41 x9)) (* 15 x18)) (- 22)))) (let ((?v_44 (not ?v_10)) (?v_3 (not ?v_1)) (?v_12 (not ?v_2)) (?v_110 (<= (+ (* (- 31) x17) (* 10 x20)) (- 17))) (?v_136 (< (+ (- (* (- 11) x12) (* 3 x12)) (* 3 x1)) (- 19)))) (let ((?v_57 (not ?v_136)) (?v_25 (distinct (+ (- (* (- 22) x3) (* 11 x9)) (* 9 x12)) 6))) (let ((?v_43 (not ?v_25)) (?v_11 (= (- (+ (* (- 20) x21) (* 24 x1)) (* 42 x3)) (- 39))) (?v_24 (<= (+ (- (* (- 40) x27) (* 33 x1)) (* 2 x21)) 34))) (let ((?v_66 (not ?v_24)) (?v_15 (not ?v_6)) (?v_52 (distinct (+ (* (- 35) x16) (* 3 x5) (* 41 x19)) (- 38))) (?v_85 (= (- (+ (* (- 23) x15) (* 22 x15)) (* 22 x27)) 37))) (let ((?v_78 (not ?v_85)) (?v_72 (not ?v_11)) (?v_19 (< (- (+ (* 16 x23) (* 18 x16)) x7) (- 15))) (?v_64 (< (- (+ (* (- 37) x20) (* 10 x8)) (* 26 x18)) (- 26))) (?v_23 (< (+ (- (* 4 x24) (* 34 x19)) (* 5 x3)) (- 29)))) (let ((?v_38 (not ?v_23)) (?v_48 (< (- (- (* (- 20) x27) (* 7 x20)) (* 24 x18)) 32)) (?v_53 (< (+ (- 0 (* 14 x28)) (* 8 x9)) (- 25))) (?v_82 (<= (+ (- (* (- 4) x8) (* 24 x13)) (* 11 x11)) (- 10)))) (let ((?v_84 (not ?v_82)) (?v_54 (< (- (* 30 x18) (* 40 x15)) (- 42)))) (let ((?v_135 (not ?v_54)) (?v_51 (< (+ (- (* (- 37) x11) (* 14 x23)) (* 11 x23)) (- 32))) (?v_46 (< (+ (* (- 27) x15) (* 33 x21) (* 9 x28)) 5))) (let ((?v_122 (not ?v_46)) (?v_137 (< (- (- (* (- 26) x2) 0) (* 8 x17)) 13)) (?v_73 (not ?v_52)) (?v_124 (< (- (+ (* 16 x21) (* 42 x23)) (* 14 x13)) (- 18))) (?v_143 (< (+ (- (* (- 39) x18) (* 27 x8)) (* 23 x12)) (- 32)))) (let ((?v_132 (not ?v_143)) (?v_62 (not ?v_53)) (?v_101 (not ?v_51)) (?v_119 (not ?v_64)) (?v_111 (not ?v_48)) (?v_147 (or ?v_73 ?v_108)) (?v_127 (not ?v_124)) (?v_141 (not ?v_19)) (?v_150 (not ?v_137)) (?v_148 (not ?v_100)) (?v_151 (not ?v_110))) (and (and (and (and (and (and (and (and (and (and (and (and (and (and (and (and (and (and (and (and (and (and (and (and (and (and (and (and (and (and (and (and (and (and (and (and (and (and (and (and (and (and (and (and (and (and (and (and (and (and (and (and (and (and (and (and (and (and (and (and (and (and (and (and (and (and (and (and (and (and (and (and (and (and (and (and (and (and (and (and (and (and (and (and (and (and (and (and (and (and (and (and (and (and (and (and (and (and (and (and (and (and (and (and (and (and (and (and (and (and (and (and (and (and (and (and (and (and (and (and (and (and (and (and (and (and (and (and (and (and (and (and (and (and (and (and (and (and (and (and (and (and (and (and (and (and (and (and (and (and (and (and (and (and (and (and (and (and (and (and (and (and (and (and (and (and (and (and (and (and (and (and (and (and (and (and (and (and (and (and (and (and (and (and (and (and (and (and (and (and (and (and (and (and (and (and (and (and (and (and (and (and (and (and (and (and (and (and (and (and (and (and (and (and (and (and (and (and (and (and (and (and (and (and (and (and (and (and (and (and (and (and (and (and (and (and (and (and (and (and (and (and (and (and (and (and (and (and (and (and (and (and (and (and (and (and (and (and (and (and (and (and (and (and (and (and (and (and (and (and (and (and (and (and (and (and (and (and (and (and (and (and (and (and (and (and (and (and (and (and (and (and (and (and (and (and (and (and (and (and (and (and (and (and (and (and (and (and (and (and (and (and (and (and (and (and (and (and (and (and (and (and (and (and (and (and (and (and (and (and (and (and (and (and (and (and (and (and (and (and (and (and (and (and (and (and (and (and (and (and (and (and (and (and (and (and (and (and (and (and (and (and (and (and (and (and (and (and (and (and (and (and (and (and (and (and (and (and (and (and (and (and (and (and (and (and (and (and (and (and (and (and (and (and (and (and (and (and (and (and (and (and (and (and (and (and (and (and (and (and (and (and (and (and (and (and (and (and (and (and (and (and (and (and (and (and (and (and (and (and (and (and (and (and (and (and (and (and (and (and (and (and (and (and (and (and (and (and (and (or (or ?v_59 ?v_35) P18) (or (or ?v_100 P24) P29)) (or (or ?v_17 ?v_60) ?v_1)) (or (or ?v_81 ?v_30) ?v_5)) (or (or ?v_21 P17) ?v_16)) (or (or ?v_2 ?v_56) ?v_6)) (or (or ?v_67 ?v_88) ?v_33)) (or (or P21 ?v_44) ?v_68)) (or (or ?v_3 ?v_20) ?v_12)) (or (or ?v_58 ?v_110) ?v_22)) (or (or P23 ?v_9) ?v_57)) (or (or P27 ?v_3) ?v_7)) (or (or ?v_43 P12) ?v_11)) (or (or ?v_66 ?v_63) ?v_41)) (or (or ?v_76 ?v_47) ?v_5)) (or (or ?v_15 ?v_55) ?v_52)) (or (or ?v_142 ?v_39) ?v_31)) (or (or ?v_78 ?v_37) ?v_107)) (or (or ?v_9 P1) ?v_139)) (or (or ?v_10 ?v_32) ?v_103)) (or (or ?v_129 P16) ?v_72)) (or (or P27 ?v_12) P2)) (or (or ?v_13 ?v_18) P28)) (or (or ?v_118 P17) P27)) (or (or ?v_14 P7) ?v_15)) (or (or ?v_16 ?v_50) ?v_13)) (or (or ?v_12 P6) ?v_19)) (or (or ?v_34 ?v_7) ?v_17)) (or (or ?v_64 ?v_18) ?v_2)) (or (or ?v_19 ?v_26) ?v_125)) (or (or ?v_12 ?v_20) ?v_38)) (or (or ?v_48 ?v_21) ?v_69)) (or (or ?v_23 ?v_24) ?v_6)) (or (or ?v_25 ?v_26) ?v_27)) (or (or ?v_28 ?v_53) P21)) (or (or ?v_29 P4) ?v_84)) (or (or ?v_86 ?v_31) P3)) (or (or P13 ?v_32) ?v_33)) (or (or ?v_49 ?v_30) ?v_34)) (or (or ?v_35 ?v_6) ?v_104)) (or (or ?v_40 ?v_36) ?v_106)) (or (or ?v_135 ?v_75) ?v_51)) (or (or ?v_38 ?v_74) ?v_26)) (or (or ?v_39 ?v_27) ?v_40)) (or (or ?v_45 ?v_117) ?v_126)) (or (or ?v_46 P3) ?v_42)) (or (or P21 ?v_77) ?v_96)) (or (or ?v_43 ?v_44) ?v_94)) (or (or P28 P9) ?v_41)) (or (or ?v_45 ?v_98) ?v_122)) (or (or ?v_47 P29) ?v_48)) (or (or ?v_29 ?v_49) ?v_50)) (or (or ?v_51 ?v_116) ?v_9)) (or (or ?v_52 ?v_137) ?v_109)) (or (or ?v_53 ?v_39) ?v_32)) (or (or ?v_15 ?v_92) ?v_39)) (or (or ?v_97 ?v_73) ?v_50)) (or (or ?v_124 ?v_54) ?v_1)) (or (or ?v_27 ?v_52) P26)) (or (or P7 ?v_55) ?v_87)) (or (or ?v_13 ?v_57) ?v_132)) (or (or ?v_49 ?v_28) ?v_58)) (or (or ?v_59 ?v_62) ?v_37)) (or (or ?v_53 ?v_10) ?v_15)) (or (or ?v_48 P14) ?v_60)) (or (or ?v_91 ?v_16) ?v_61)) (or (or ?v_79 ?v_40) ?v_62)) (or (or ?v_12 ?v_19) ?v_101)) (or (or ?v_63 ?v_49) ?v_119)) (or (or ?v_65 ?v_47) ?v_114)) (or (or P5 ?v_61) ?v_20)) (or (or ?v_15 ?v_89) ?v_42)) (or (or ?v_42 ?v_66) ?v_65)) (or (or ?v_112 ?v_90) ?v_30)) (or (or ?v_68 ?v_69) ?v_60)) (or (or ?v_70 ?v_121) ?v_62)) (or (or ?v_111 P25) ?v_11)) (or (or ?v_33 ?v_16) ?v_42)) (or (or ?v_71 ?v_72) ?v_6)) (or (or ?v_59 ?v_26) ?v_73)) (or (or ?v_31 ?v_74) ?v_113)) (or (or ?v_75 P4) ?v_76)) (or (or ?v_77 ?v_63) ?v_78)) (or (or ?v_99 P22) ?v_80)) (or (or ?v_81 ?v_63) ?v_40)) (or (or ?v_33 ?v_28) ?v_54)) (or (or ?v_35 ?v_82) ?v_37)) (or (or ?v_83 ?v_84) P0)) (or (or ?v_11 ?v_85) ?v_26)) (or (or ?v_72 ?v_10) P0)) (or (or ?v_57 P10) ?v_86)) (or (or ?v_55 ?v_63) ?v_87)) (or (or ?v_7 ?v_88) ?v_69)) (or (or ?v_133 P4) ?v_115)) (or (or ?v_1 ?v_90) ?v_91)) (or (or P0 ?v_92) ?v_59)) (or (or ?v_93 ?v_94) ?v_140)) (or (or ?v_95 ?v_96) P2)) (or (or ?v_97 ?v_52) ?v_81)) (or (or ?v_94 P10) ?v_49)) (or (or ?v_98 ?v_99) ?v_13)) (or (or ?v_98 ?v_16) ?v_100)) (or (or ?v_37 ?v_74) ?v_70)) (or (or ?v_101 ?v_12) P6)) (or (or ?v_102 ?v_77) ?v_79)) (or (or P13 ?v_24) ?v_37)) (or (or P6 ?v_78) ?v_103)) (or (or ?v_30 ?v_104) ?v_23)) (or (or ?v_144 ?v_90) ?v_123)) (or (or ?v_3 ?v_105) ?v_106)) (or (or ?v_41 ?v_70) ?v_39)) (or (or ?v_102 ?v_15) ?v_107)) (or ?v_147 ?v_11)) (or (or ?v_16 ?v_9) ?v_70)) (or (or ?v_19 ?v_109) ?v_110)) (or ?v_134 ?v_11)) (or (or ?v_78 ?v_57) ?v_11)) (or (or ?v_76 P9) P4)) (or (or ?v_111 ?v_41) ?v_112)) (or (or P24 ?v_82) ?v_51)) (or (or ?v_113 ?v_87) P12)) (or (or P4 ?v_120) P24)) (or (or P16 ?v_114) ?v_5)) (or (or ?v_58 P13) ?v_22)) (or (or ?v_115 ?v_116) ?v_39)) (or (or ?v_117 ?v_88) ?v_112)) (or (or P27 ?v_110) ?v_38)) (or (or ?v_108 P13) ?v_99)) (or (or ?v_45 ?v_81) P25)) (or (or ?v_114 ?v_118) ?v_111)) (or (or P6 ?v_50) ?v_69)) (or (or ?v_146 ?v_14) ?v_74)) (or (or ?v_16 ?v_28) ?v_75)) (or (or ?v_111 ?v_16) ?v_119)) (or (or ?v_120 ?v_17) ?v_81)) (or (or ?v_108 ?v_80) ?v_121)) (or (or ?v_7 ?v_6) ?v_51)) (or (or ?v_138 ?v_104) ?v_21)) (or (or ?v_50 ?v_17) ?v_16)) (or (or ?v_18 ?v_50) ?v_122)) (or (or P13 ?v_21) ?v_123)) (or (or ?v_3 ?v_11) ?v_46)) (or (or ?v_61 ?v_79) ?v_2)) (or (or ?v_67 ?v_116) ?v_76)) (or (or ?v_89 ?v_88) ?v_113)) (or (or P19 ?v_117) ?v_27)) (or (or ?v_78 ?v_12) P9)) (or (or ?v_115 ?v_127) ?v_125)) (or (or ?v_10 P11) P27)) (or (or P17 ?v_11) P26)) (or (or ?v_113 ?v_94) ?v_111)) (or (or ?v_82 P27) ?v_18)) (or (or ?v_104 ?v_43) ?v_126)) (or (or ?v_126 ?v_127) ?v_29)) (or (or ?v_128 ?v_94) ?v_115)) (or (or ?v_128 ?v_120) P29)) (or (or ?v_5 ?v_34) ?v_88)) (or (or ?v_5 ?v_85) ?v_2)) (or (or ?v_112 P12) ?v_23)) (or (or ?v_110 ?v_129) ?v_89)) (or (or ?v_34 ?v_37) ?v_76)) (or (or ?v_130 ?v_81) ?v_41)) (or (or ?v_42 ?v_92) ?v_52)) (or (or ?v_45 ?v_46) ?v_55)) (or (or P9 ?v_130) ?v_27)) (or (or P0 ?v_63) ?v_125)) (or (or ?v_86 ?v_82) ?v_45)) (or (or ?v_121 ?v_67) ?v_118)) (or (or ?v_23 ?v_76) ?v_80)) (or (or ?v_129 ?v_41) ?v_123)) (or (or ?v_100 ?v_128) ?v_131)) (or (or P21 ?v_79) P8)) (or (or ?v_123 ?v_56) ?v_35)) (or (or ?v_129 ?v_31) P24)) (or (or ?v_23 ?v_112) ?v_44)) (or (or P19 ?v_41) ?v_81)) (or (or ?v_68 ?v_9) ?v_67)) (or (or P11 P21) P8)) (or (or ?v_15 ?v_11) ?v_76)) (or (or ?v_118 ?v_47) ?v_130)) (or (or ?v_21 ?v_6) ?v_145)) (or (or P22 ?v_3) ?v_89)) (or (or ?v_21 ?v_116) ?v_22)) (or (or ?v_117 ?v_132) ?v_110)) (or (or ?v_75 P12) ?v_141)) (or (or ?v_2 P8) ?v_22)) (or (or ?v_133 ?v_98) ?v_14)) (or (or ?v_74 ?v_92) ?v_35)) (or (or ?v_35 ?v_26) P15)) (or (or ?v_133 P5) P8)) (or ?v_134 ?v_93)) (or (or ?v_79 ?v_127) ?v_16)) (or (or ?v_103 ?v_135) ?v_110)) (or (or ?v_23 ?v_70) ?v_65)) (or (or ?v_47 ?v_54) ?v_59)) (or (or ?v_20 ?v_39) ?v_41)) (or (or ?v_76 ?v_111) ?v_102)) (or (or ?v_136 ?v_68) P28)) (or (or ?v_103 P5) ?v_29)) (or (or ?v_12 ?v_112) ?v_128)) (or (or ?v_48 ?v_104) ?v_100)) (or (or ?v_43 ?v_137) ?v_67)) (or (or ?v_87 P23) ?v_2)) (or (or P18 ?v_112) ?v_126)) (or (or ?v_66 ?v_69) ?v_35)) (or (or ?v_98 ?v_2) P24)) (or (or P28 ?v_72) ?v_108)) (or (or ?v_136 P8) ?v_138)) (or (or P21 P21) ?v_31)) (or (or ?v_139 ?v_90) ?v_111)) (or (or P14 ?v_47) ?v_29)) (or (or ?v_68 ?v_5) ?v_132)) (or (or ?v_101 ?v_17) ?v_89)) (or (or ?v_129 ?v_138) P21)) (or (or ?v_96 ?v_101) ?v_87)) (or (or ?v_140 ?v_104) ?v_141)) (or (or P28 ?v_114) P2)) (or (or ?v_104 ?v_106) ?v_49)) (or (or ?v_142 P22) P8)) (or (or ?v_36 ?v_75) ?v_85)) (or (or ?v_9 ?v_1) ?v_50)) (or (or ?v_13 P29) ?v_98)) (or (or ?v_46 ?v_140) ?v_111)) (or (or ?v_112 ?v_74) ?v_142)) (or (or ?v_150 ?v_65) ?v_106)) (or (or ?v_81 P11) ?v_80)) (or (or ?v_3 ?v_92) ?v_66)) (or (or ?v_98 ?v_37) ?v_48)) (or (or ?v_77 ?v_36) ?v_148)) (or (or ?v_81 ?v_15) ?v_49)) (or (or ?v_70 P4) ?v_67)) (or (or P17 ?v_143) ?v_89)) (or (or ?v_87 ?v_2) ?v_121)) (or (or ?v_116 ?v_105) ?v_90)) (or (or ?v_144 ?v_37) ?v_27)) (or (or P10 ?v_137) ?v_114)) (or (or ?v_89 ?v_90) ?v_10)) (or (or P21 ?v_43) ?v_15)) (or (or ?v_41 ?v_81) ?v_39)) (or (or ?v_68 ?v_130) ?v_131)) (or (or ?v_65 ?v_1) ?v_99)) (or (or P10 ?v_24) P28)) (or (or ?v_46 ?v_118) ?v_139)) (or (or ?v_6 ?v_122) ?v_92)) (or (or ?v_50 P3) ?v_117)) (or (or P5 ?v_37) ?v_89)) (or (or ?v_17 ?v_66) ?v_137)) (or (or ?v_73 ?v_106) P21)) (or (or ?v_124 P16) ?v_121)) (or (or P20 ?v_145) ?v_52)) (or (or ?v_131 ?v_67) ?v_16)) (or (or P27 ?v_94) ?v_107)) (or (or ?v_100 ?v_28) P4)) (or (or ?v_92 ?v_79) ?v_143)) (or (or ?v_149 ?v_74) ?v_50)) (or (or ?v_146 ?v_38) ?v_64)) (or (or ?v_10 ?v_141) ?v_53)) (or (or ?v_39 ?v_35) ?v_17)) (or ?v_147 P29)) (or (or ?v_30 ?v_93) ?v_32)) (or (or ?v_88 ?v_13) ?v_102)) (or (or ?v_32 ?v_109) ?v_100)) (or (or P10 P15) ?v_29)) (or (or P7 ?v_15) ?v_118)) (or (or ?v_110 ?v_54) ?v_121)) (or (or P25 ?v_13) ?v_79)) (or (or P2 ?v_29) ?v_122)) (or (or ?v_92 ?v_55) P26)) (or (or ?v_7 ?v_97) ?v_117)) (or (or ?v_146 ?v_126) ?v_17)) (or (or ?v_64 ?v_13) ?v_125)) (or (or ?v_38 ?v_33) ?v_19)) (or (or ?v_137 ?v_99) ?v_133)) (or (or ?v_140 P10) ?v_58)) (or (or ?v_52 ?v_68) ?v_145)) (or (or ?v_33 ?v_10) ?v_86)) (or (or P0 ?v_117) ?v_126)) (or (or P16 ?v_42) ?v_7)) (or (or ?v_84 ?v_119) ?v_50)) (or (or ?v_145 ?v_116) ?v_62)) (or (or ?v_92 ?v_148) ?v_64)) (or (or ?v_43 ?v_51) ?v_1)) (or (or ?v_25 ?v_25) ?v_24)) (or (or ?v_127 ?v_113) ?v_136)) (or (or ?v_143 ?v_69) ?v_34)) (or (or P5 ?v_80) ?v_142)) (or (or ?v_82 ?v_90) ?v_18)) (or (or ?v_36 P5) ?v_112)) (or (or ?v_115 ?v_97) ?v_128)) (or (or ?v_149 ?v_129) ?v_138)) (or (or ?v_18 ?v_43) ?v_26)) (or (or ?v_58 ?v_47) ?v_83)) (or (or P13 ?v_122) ?v_150)) (or (or ?v_68 ?v_44) P10)) (or (or ?v_90 ?v_135) P16)) (or (or ?v_144 ?v_151) ?v_131)) (or (or P23 ?v_91) ?v_118)) (or (or P3 P25) ?v_20)) (or (or P11 ?v_140) ?v_20)) (or (or ?v_150 ?v_84) ?v_50)) (or (or ?v_91 ?v_75) ?v_15)) (or (or P3 ?v_111) ?v_57)) (or (or P14 ?v_151) ?v_133)) (or (or ?v_77 ?v_76) ?v_1)) (or (or ?v_68 ?v_56) P27)) (or (or ?v_151 P22) ?v_78)) (or (or ?v_36 ?v_55) ?v_103)) (or (or ?v_79 ?v_129) ?v_58)) (or (or ?v_83 ?v_7) ?v_64)) (or (or P9 P26) P22)) (or (or ?v_41 P6) ?v_3)) (or (or ?v_36 ?v_132) ?v_9)) (or (or ?v_91 ?v_19) ?v_16)) (or (or ?v_37 ?v_84) ?v_58)) (or (or ?v_3 ?v_83) ?v_87)) (or (or ?v_146 ?v_58) ?v_97)) (or (or P25 ?v_81) ?v_143)) (or (or ?v_32 ?v_46) ?v_137)) (or (or P13 P27) ?v_87)) (or (or ?v_33 ?v_136) ?v_81)) (or (or ?v_107 ?v_3) ?v_105)) (or (or ?v_121 ?v_118) ?v_70)) (or (or P14 ?v_85) ?v_17)) (or (or P24 ?v_106) ?v_86)) (or (or P19 ?v_140) ?v_67)) (or (or ?v_137 ?v_122) P28)) (or (or ?v_43 ?v_101) ?v_128)) (or (or ?v_141 ?v_81) ?v_106)) (or (or ?v_135 ?v_82) ?v_59)) (or (or ?v_72 P13) ?v_77)) (or (or ?v_78 ?v_26) ?v_131)) (or (or ?v_32 ?v_114) ?v_59)) (or (or ?v_144 ?v_43) ?v_56)) (or (or ?v_33 ?v_151) ?v_135)) (or (or ?v_34 ?v_28) ?v_145)) (or (or ?v_111 ?v_13) P3)) (or (or ?v_32 ?v_6) P19)) (or (or ?v_87 ?v_52) ?v_133)) (or (or ?v_84 ?v_65) ?v_29)) (or (or ?v_7 P15) ?v_79)) (or (or ?v_70 ?v_74) P27)) (or (or ?v_150 ?v_124) P9)) (or (or ?v_20 ?v_100) ?v_30)) (or (or ?v_132 ?v_53) P29)) (or (or P28 ?v_118) ?v_74)) (or (or ?v_13 ?v_69) ?v_142)) (or (or ?v_113 ?v_110) ?v_125)) (or (or ?v_5 ?v_56) P15)) (or (or ?v_20 ?v_138) ?v_15)) (or (or P5 ?v_58) ?v_35)) (or (or ?v_25 P9) P13)) (or (or ?v_26 ?v_24) ?v_54)) (or (or ?v_64 ?v_140) P25)) (or (or ?v_133 ?v_102) ?v_1)) (or (or ?v_61 ?v_84) ?v_1)) (or (or ?v_110 ?v_138) ?v_74)) (or (or ?v_141 ?v_57) ?v_16)) (or (or P14 ?v_57) ?v_20)) (or (or ?v_63 ?v_119) ?v_17)) (or (or ?v_26 P11) ?v_20)) (or (or P27 ?v_152) ?v_33)) (or (or ?v_99 ?v_59) ?v_15)) (or (or P24 ?v_13) ?v_97)) (or (or ?v_150 ?v_39) ?v_116)) (or (or ?v_92 ?v_70) ?v_113)) (or (or ?v_69 ?v_87) ?v_68)) (or (or ?v_84 ?v_36) ?v_81)) (or (or ?v_111 ?v_116) ?v_87)) (or (or P14 ?v_35) ?v_146)) (or (or P10 ?v_12) P21)) (or (or ?v_68 ?v_78) ?v_135)) (or (or ?v_53 P1) ?v_28)) (or (or ?v_54 ?v_61) ?v_108)) (or (or ?v_23 ?v_40) ?v_126)) (or (or ?v_130 ?v_70) ?v_12)) (or (or ?v_29 ?v_12) P14)) (or (or ?v_108 ?v_86) ?v_99)) (or (or ?v_115 ?v_37) ?v_127)) (or (or ?v_102 ?v_105) ?v_119)) (or (or ?v_45 P18) ?v_143)) (or (or ?v_94 ?v_123) ?v_149)) (or (or P10 P19) ?v_146)) (or (or ?v_96 ?v_37) ?v_30)) (or (or ?v_110 P2) ?v_124)) (or (or ?v_124 ?v_23) ?v_126)) (or (or ?v_86 ?v_12) ?v_132)) (or (or ?v_146 ?v_11) ?v_152)) (or (or ?v_33 ?v_43) ?v_141)) (or (or P26 ?v_112) P10)) (or (or ?v_150 ?v_99) ?v_14)) (or (or ?v_98 ?v_151) P27)) (or (or P29 ?v_81) ?v_16)) (or (or ?v_26 ?v_56) ?v_78)) (or (or ?v_121 ?v_46) ?v_31)) (or (or ?v_149 ?v_10) ?v_2)) (or (or ?v_139 ?v_143) ?v_70)) (or (or ?v_144 ?v_91) ?v_127)) (or (or ?v_80 ?v_66) ?v_31)) (or (or ?v_23 ?v_140) ?v_7)) (or (or ?v_132 ?v_109) ?v_139)) (or (or ?v_92 ?v_24) ?v_100)) (or (or ?v_30 P16) ?v_142)) (or (or ?v_50 ?v_82) ?v_31)) (or (or ?v_125 P24) ?v_30)) (or (or ?v_14 ?v_79) ?v_106)) (or (or ?v_49 ?v_109) ?v_64)) (or (or ?v_34 ?v_98) ?v_101)) (or (or ?v_131 ?v_1) P13)) (or (or ?v_140 ?v_91) ?v_148)) (or (or P16 P26) ?v_20)) (or (or ?v_57 P27) ?v_152)) (or (or ?v_22 ?v_107) ?v_88)) (or (or P19 ?v_57) ?v_50)) (or (or ?v_80 P21) ?v_88)) (or (or ?v_52 ?v_17) ?v_20)) (or (or P17 ?v_82) P1)) (or (or ?v_123 ?v_80) ?v_107)) (or (or ?v_26 ?v_37) ?v_12)) (or (or ?v_19 ?v_34) P5)) (or (or ?v_114 ?v_76) ?v_45)) (or (or ?v_13 ?v_122) ?v_9)) (or (or ?v_72 P10) ?v_103)) (or (or ?v_90 ?v_80) ?v_48)) (or (or ?v_31 ?v_30) ?v_52)) (or (or ?v_94 ?v_57) ?v_133)) (or (or P2 ?v_28) ?v_117)) (or (or ?v_46 ?v_49) ?v_5)) (or (or ?v_62 ?v_151) ?v_24)) (or (or ?v_137 P8) ?v_27)) (or (or ?v_113 ?v_113) P7)) (or (or ?v_149 ?v_137) P20)) (or (or ?v_141 ?v_79) ?v_55)) (or (or P15 ?v_90) ?v_116)) (or (or P2 P21) ?v_99)) (or (or ?v_122 ?v_29) ?v_141)) (or (or ?v_106 ?v_68) ?v_62)) (or (or ?v_130 ?v_127) ?v_64)) (or (or (not ?v_146) ?v_59) ?v_140)) (or (or ?v_145 ?v_75) ?v_82)) (or (or ?v_53 ?v_89) ?v_27)) (or (or ?v_27 P11) ?v_101)) (or (or ?v_33 ?v_15) ?v_41)) (or (or ?v_126 ?v_74) ?v_120)) (or (or ?v_32 ?v_87) ?v_37)) (or (or ?v_79 ?v_26) ?v_85)) (or (or ?v_80 ?v_36) ?v_121)) (or (or ?v_36 ?v_30) ?v_121)) (or (or ?v_31 ?v_117) ?v_80)) (or (or ?v_69 ?v_122) P8)) (or (or ?v_12 P15) ?v_92))))))))))))))))))))
(check-sat)
(exit)
